25
25
1
3
3600
536 692 756 931 993 1110 1294 1335 1508 1552 1556 1681 1799 1960 2041 2052 2364 2429 2462 2511 2564 2640 2717 2735 2821 
24 28 32 31 40 36 31 28 31 15 32 23 6 22 39 9 30 32 39 36 39 39 31 8 17 
